lab4:NetworkFlow/lab4_2.dat
set NODES := S1 S2 T1 T2 D1 D2;

set ARCS :=
(S1, T1)  (S1, T2)
(S2, T1)  (S2, T2)
(T1, D1)  (T1, D2)
(T2, D1)  (T2, D2);

param cap :=
S1 T1 15
S1 T2 10
S2 T1 7
S2 T2 10
T1 D1 8
T1 D2 10
T2 D1 5
T2 D2 15;

param cost :=
S1 T1 2
S1 T2 4
S2 T1 3
S2 T2 1
T1 D1 2
T1 D2 5
T2 D1 3
T2 D2 2;

param b :=
S1 20
S2 15
T1 0
T2 0
D1 -10
D2 -25;