lab4:NetworkFlow/lab4_2.out
x :=
S1 T1   13
S1 T2    7
S2 T1    5
S2 T2   10
T1 D1    8
T1 D2   10
T2 D1    2
T2 D2   15
;

total_cost = 181

